1436.09 0
0 81 50 169 129 10 80 77 38 170 11 52 150 0
0 98 154 124 20 166 138 37 88 103 5 59 54 0
0 16 182 49 63 107 73 145 24 74 144 116 183 67 159 0
0 58 27 102 8 176 46 175 100 12 130 76 17 0
0 117 181 147 18 146 135 92 148 118 72 44 0
0 47 155 36 122 174 82 121 140 21 173 172 139 152 0
0 188 96 53 198 192 184 160 190 43 199 136 1 191 0
0 51 7 132 69 108 84 134 85 164 165 119 71 168 0
0 104 23 62 185 115 90 41 197 158 195 0
0 125 153 79 15 83 13 123 128 70 111 4 87 127 0
0 60 178 78 19 177 133 14 180 35 149 26 126 95 0
0 30 120 171 48 29 45 99 179 167 65 34 0
0 151 3 55 106 32 161 9 189 57 109 39 97 187 0
0 112 186 22 141 91 142 113 137 89 143 68 42 196 194 0
0 105 33 193 66 93 156 114 94 64 28 101 86 157 2 0
0 40 131 31 162 75 163 110 25 56 61 6 0
